Problem:    guia2_10
Rows:       13
Columns:    12
Non-zeros:  36
Status:     OPTIMAL
Objective:  Z = 13499.75 (MAXimum)

   No.   Row name   St   Activity     Lower bound   Upper bound    Marginal
------ ------------ -- ------------- ------------- ------------- -------------
     1 Z            B        13499.8                             
     2 maxRRT       NU           650                         650             2 
     3 maxRRA       NU           350                         350           6.4 
     4 maxRRR       NU           250                         250             7 
     5 maxRCR       NU           600                         600           2.1 
     6 maxRC        NU          1100                        1100          1.46 
     7 maxRM        NU           990                         990           2.8 
     8 maxRG        NU           635                         635          4.05 
     9 atadoCR      NU             0                          -0          0.05 
    10 atadoM       NU             0                          -0          0.03 
    11 atadoRT      NU             0                          -0             1 
    12 atadoRA      NU             0                          -0           0.4 
    13 atadoRR      NU             0                          -0           0.2 

   No. Column name  St   Activity     Lower bound   Upper bound    Marginal
------ ------------ -- ------------- ------------- ------------- -------------
     1 RRT          B            650             0               
     2 RRA          B            350             0               
     3 RRR          B            250             0               
     4 RCR          B            600             0               
     5 RC           B           1100             0               
     6 RM           B            990             0               
     7 RG           B            635             0               
     8 RT           B           32.5             0               
     9 RA           B             63             0               
    10 RR           B          128.1             0               
    11 CR           B          336.5             0               
    12 M            B         282.25             0               

Karush-Kuhn-Tucker optimality conditions:

KKT.PE: max.abs.err = 0.00e+00 on row 0
        max.rel.err = 0.00e+00 on row 0
        High quality

KKT.PB: max.abs.err = 0.00e+00 on row 0
        max.rel.err = 0.00e+00 on row 0
        High quality

KKT.DE: max.abs.err = 0.00e+00 on column 0
        max.rel.err = 0.00e+00 on column 0
        High quality

KKT.DB: max.abs.err = 0.00e+00 on row 0
        max.rel.err = 0.00e+00 on row 0
        High quality

End of output
